# Solution for model TSPTW
# Objective value = 8
B0(3) 1
B1(3) 0
B2(3) 0
B3(3) 0
B4(3) 0
B5(3) 0
B6(3) 0
B7(5) 0
B8(5) 0
B9(5) 1
B10(5) 0
B11(5) 0
B12(5) 0
B13(5) 0
B14(5) 0
B15(5) 0
B16(5) 0
B17(5) 0
B18(5) 0
B19(5) 0
B20(5) 1
B21(5) 0
B22(5) 0
B23(5) 1
B24(5) 0
B25(5) 0
B26(5) 0
B27(5) 0
B28(5) 0
B29(5) 0
B30(5) 0
B31(5) 0
B32(5) 1
B33(5) 0
B34(5) 0
B35(5) 0
B36(5) 0
B37(5) 0
B38(5) 0
B39(5) 0
B40(5) 1
B41(5) 0
B42(5) 1
B43(5) 0
B44(5) 0
B45(5) 0
B46(5) 0
B47(5) 0
B48(5) 0
B49(5) 0
B50(5) 0
B51(5) 0
B52(5) 0
B53(5) 1
B54(5) 0
B55(5) 0
C56(0) 2e+09
C57(0) 2e+09
C58(0) 2e+09
C59(0) 2e+09
C60(0) 2e+09
C61(0) 2e+09
C62(0) 2e+09
C63(0) 2e+09
C64(0) 2e+09
I65(7) 2e+09
I66(8) 7
I67(0) 2e+09
I68(13) 4
I69(14) 0
I70(0) 2e+09
I71(13) 6
I72(14) 2
I73(0) 2e+09
I74(13) 5
I75(14) 1
I76(0) 2e+09
I77(13) 8
I78(14) 4
I79(0) 2e+09
I80(13) 9
I81(14) 5
I82(0) 2e+09
I83(13) 10
I84(14) 6
I85(0) 2e+09
I86(13) 7
I87(14) 3
I88(0) 2e+09
I89(1) 0
I90(1) 0
I91(1) 0
I92(1) 0
I93(1) 0
I94(1) 0
I95(1) 0
I96(1) 8
I97(1) 0
